N = 18;
MinK = 2;
Capacity = 160;

X = array1d(0..18, [30, 37, 49, 52, 31, 52, 42, 52, 57, 62, 42, 27, 43, 58, 37, 61, 62, 63, 45]);
Y = array1d(0..18, [40, 52, 43, 64, 62, 33, 41, 41, 58, 42, 57, 68, 67, 27, 69, 33, 63, 69, 35]);

Demands = [19, 30, 16, 23, 11, 31, 15, 28, 14, 8, 7, 14, 19, 11, 26, 17, 6, 15];
